(set-logic BV) (define-fun origCir ((n236 Bool) (n325 Bool) (n254 Bool) (n207 Bool) (i52 Bool)) Bool (xor (and (xor n325 (not (and n254 n207))) n236) i52)) (synth-fun skel ((n236 Bool) (n325 Bool) (n254 Bool) (n207 Bool) (i52 Bool)) Bool) (declare-var n236 Bool) (declare-var n325 Bool) (declare-var n254 Bool) (declare-var n207 Bool) (declare-var i52 Bool) (constraint (= (origCir n236 n325 n254 n207 i52) (skel n236 n325 n254 n207 i52))) (check-synth)
